653.08
1 1 57.28 0 17 37 15 45 44 42 0
1 2 61.79 0 19 41 40 13 0
1 3 47.00 0 4 18 25 0
2 1 87.11 0 7 26 8 31 1 32 0
2 2 42.08 0 46 11 12 47 0
2 3 78.93 0 27 23 43 24 14 0
2 4 36.16 0 48 6 0
3 1 62.63 0 30 10 39 33 49 0
3 2 40.96 0 9 34 50 16 38 0
3 3 20.00 0 5 0
4 1 49.91 0 20 35 36 3 0
4 2 69.23 0 28 22 2 29 21 0
